9
0 162 340 379 208 218 295 448 316 
162 0 390 225 281 128 298 483 427 
340 390 0 372 120 128 333 286 327 
379 225 372 0 352 355 388 126 118 
208 281 120 352 0 359 196 355 279 
218 128 128 355 359 0 459 418 120 
295 298 333 388 196 459 0 338 127 
448 483 286 126 355 418 338 0 239 
316 427 327 118 279 120 127 239 0 
